p cnf 250 375
1 135 0
1 30 0
1 64 0
2 183 0
2 104 0
2 173 0
3 123 0
3 63 0
3 91 0
4 249 0
4 204 0
4 16 0
5 101 0
5 168 0
5 40 0
6 86 0
6 19 0
6 82 0
7 109 0
7 118 0
7 178 0
8 221 0
8 125 0
8 33 0
9 52 0
9 25 0
9 46 0
10 18 0
10 213 0
10 219 0
11 44 0
11 43 0
11 46 0
12 160 0
12 121 0
12 94 0
13 228 0
13 20 0
13 118 0
14 234 0
14 118 0
14 238 0
15 123 0
15 175 0
15 142 0
16 179 0
16 89 0
17 20 0
17 88 0
17 33 0
18 182 0
18 191 0
19 26 0
19 119 0
20 157 0
21 32 0
21 208 0
21 26 0
22 161 0
22 212 0
22 77 0
23 89 0
23 95 0
23 175 0
24 127 0
24 174 0
24 133 0
25 246 0
25 193 0
26 215 0
27 102 0
27 232 0
27 134 0
28 162 0
28 41 0
28 177 0
29 239 0
29 163 0
29 229 0
30 170 0
30 45 0
31 45 0
31 161 0
31 150 0
32 153 0
32 146 0
33 78 0
34 81 0
34 82 0
34 159 0
35 36 0
35 238 0
35 67 0
36 136 0
36 82 0
37 47 0
37 206 0
37 73 0
38 205 0
38 62 0
38 65 0
39 220 0
39 249 0
39 76 0
40 214 0
40 100 0
41 182 0
41 103 0
42 143 0
42 235 0
42 178 0
43 104 0
43 195 0
44 109 0
44 201 0
45 243 0
46 226 0
47 166 0
47 197 0
48 229 0
48 124 0
48 242 0
49 188 0
49 99 0
49 151 0
50 138 0
50 59 0
50 232 0
51 231 0
51 196 0
51 236 0
52 177 0
52 61 0
53 125 0
53 141 0
53 72 0
54 131 0
54 66 0
54 224 0
55 172 0
55 166 0
55 155 0
56 145 0
56 200 0
56 150 0
57 99 0
57 144 0
57 230 0
58 200 0
58 193 0
58 203 0
59 196 0
59 163 0
60 153 0
60 225 0
60 141 0
61 125 0
61 198 0
62 79 0
62 151 0
63 116 0
63 153 0
64 160 0
64 97 0
65 209 0
65 116 0
66 164 0
66 90 0
67 234 0
67 246 0
68 185 0
68 115 0
68 140 0
69 236 0
69 86 0
69 126 0
70 219 0
70 101 0
70 202 0
71 220 0
71 188 0
71 227 0
72 187 0
72 98 0
73 165 0
73 149 0
74 128 0
74 194 0
74 121 0
75 139 0
75 89 0
75 92 0
76 179 0
76 182 0
77 218 0
77 192 0
78 102 0
78 92 0
79 122 0
79 160 0
80 157 0
80 114 0
80 194 0
81 144 0
81 242 0
83 85 0
83 131 0
83 87 0
84 130 0
84 186 0
84 231 0
85 208 0
85 186 0
86 111 0
87 212 0
87 96 0
88 215 0
88 180 0
90 129 0
90 107 0
91 138 0
91 127 0
92 207 0
93 96 0
93 147 0
93 132 0
94 187 0
94 235 0
95 239 0
95 235 0
96 148 0
97 247 0
97 186 0
98 154 0
98 134 0
99 147 0
100 199 0
100 204 0
101 113 0
102 143 0
103 114 0
103 117 0
104 106 0
105 136 0
105 227 0
105 140 0
106 238 0
106 216 0
107 243 0
107 115 0
108 169 0
108 191 0
108 241 0
109 218 0
110 216 0
110 147 0
110 199 0
111 184 0
111 250 0
112 241 0
112 190 0
112 135 0
113 249 0
113 159 0
114 137 0
115 205 0
116 240 0
117 181 0
117 180 0
119 209 0
119 152 0
120 191 0
120 246 0
120 244 0
121 148 0
122 197 0
122 207 0
123 203 0
124 165 0
124 199 0
126 217 0
126 135 0
127 240 0
128 129 0
128 202 0
129 165 0
130 198 0
130 242 0
131 141 0
132 217 0
132 223 0
133 175 0
133 196 0
134 219 0
136 154 0
137 207 0
137 237 0
138 158 0
139 226 0
139 164 0
140 200 0
142 192 0
142 195 0
143 158 0
144 230 0
145 146 0
145 154 0
146 189 0
148 206 0
149 168 0
149 189 0
150 159 0
151 167 0
152 169 0
152 176 0
155 156 0
155 168 0
156 176 0
156 188 0
157 216 0
158 236 0
161 181 0
162 202 0
162 194 0
163 237 0
164 239 0
166 241 0
167 176 0
167 240 0
169 209 0
170 211 0
170 234 0
171 173 0
171 232 0
171 215 0
172 250 0
172 210 0
173 247 0
174 245 0
174 184 0
177 185 0
178 222 0
179 213 0
180 189 0
181 185 0
183 210 0
183 231 0
184 217 0
187 248 0
190 220 0
190 229 0
192 210 0
193 224 0
195 226 0
197 213 0
198 244 0
201 233 0
201 214 0
203 225 0
204 206 0
205 228 0
208 224 0
211 221 0
211 223 0
212 214 0
218 222 0
221 250 0
222 230 0
223 237 0
225 248 0
227 233 0
228 244 0
233 247 0
243 245 0
245 248 0
g -152